benchmarks/VRPTW/TSPTW/solution/n80w80.003.txt.solution
1 59 49 26 78 20 58 77 53 18 19 71 4 14 52 61 2 72 41 9 12 38 74 43 11 16 48 5 35 62 63 66 40 46 42 56 30 55 75 76 17 37 13 34 3 54 47 23 24 33 6 70 8 67 25 64 31 36 44 10 15 32 57 73 68 22 29 50 69 51 21 65 80 60 7 28 39 79 45 81 27 
589
